(set-logic QF_LRA)
(declare-fun X0 () Real )
(declare-fun Y0 () Real )
(declare-fun X1 () Real )
(declare-fun Y1 () Real )
(declare-fun X2 () Real )
(declare-fun Y2 () Real )
(declare-fun X3 () Real )
(declare-fun Y3 () Real )
(declare-fun X4 () Real )
(declare-fun Y4 () Real )
(declare-fun X5 () Real )
(declare-fun Y5 () Real )
(declare-fun Z () Real )
(declare-fun k () Real )
(assert (let
(( $goal (>= Z k) ))
(let
((
$phi ( and 
( or ( <= ( + X0 86 ) X1 )  ( <= ( + X1 63 ) X0 )  ( <= ( + Y0 23 ) Y1 )  ( <= ( + Y1 81 ) Y0 )  )
( or ( <= ( + X0 86 ) X2 )  ( <= ( + X2 35 ) X0 )  ( <= ( + Y0 23 ) Y2 )  ( <= ( + Y2 92 ) Y0 )  )
( or ( <= ( + X0 86 ) X3 )  ( <= ( + X3 53 ) X0 )  ( <= ( + Y0 23 ) Y3 )  ( <= ( + Y3 64 ) Y0 )  )
( or ( <= ( + X0 86 ) X4 )  ( <= ( + X4 66 ) X0 )  ( <= ( + Y0 23 ) Y4 )  ( <= ( + Y4 63 ) Y0 )  )
( or ( <= ( + X0 86 ) X5 )  ( <= ( + X5 97 ) X0 )  ( <= ( + Y0 23 ) Y5 )  ( <= ( + Y5 68 ) Y0 )  )
( or ( <= ( + X1 63 ) X2 )  ( <= ( + X2 35 ) X1 )  ( <= ( + Y1 81 ) Y2 )  ( <= ( + Y2 92 ) Y1 )  )
( or ( <= ( + X1 63 ) X3 )  ( <= ( + X3 53 ) X1 )  ( <= ( + Y1 81 ) Y3 )  ( <= ( + Y3 64 ) Y1 )  )
( or ( <= ( + X1 63 ) X4 )  ( <= ( + X4 66 ) X1 )  ( <= ( + Y1 81 ) Y4 )  ( <= ( + Y4 63 ) Y1 )  )
( or ( <= ( + X1 63 ) X5 )  ( <= ( + X5 97 ) X1 )  ( <= ( + Y1 81 ) Y5 )  ( <= ( + Y5 68 ) Y1 )  )
( or ( <= ( + X2 35 ) X3 )  ( <= ( + X3 53 ) X2 )  ( <= ( + Y2 92 ) Y3 )  ( <= ( + Y3 64 ) Y2 )  )
( or ( <= ( + X2 35 ) X4 )  ( <= ( + X4 66 ) X2 )  ( <= ( + Y2 92 ) Y4 )  ( <= ( + Y4 63 ) Y2 )  )
( or ( <= ( + X2 35 ) X5 )  ( <= ( + X5 97 ) X2 )  ( <= ( + Y2 92 ) Y5 )  ( <= ( + Y5 68 ) Y2 )  )
( or ( <= ( + X3 53 ) X4 )  ( <= ( + X4 66 ) X3 )  ( <= ( + Y3 64 ) Y4 )  ( <= ( + Y4 63 ) Y3 )  )
( or ( <= ( + X3 53 ) X5 )  ( <= ( + X5 97 ) X3 )  ( <= ( + Y3 64 ) Y5 )  ( <= ( + Y5 68 ) Y3 )  )
( or ( <= ( + X4 66 ) X5 )  ( <= ( + X5 97 ) X4 )  ( <= ( + Y4 63 ) Y5 )  ( <= ( + Y5 68 ) Y4 )  )
( >= X0 0)
( <= ( + X0 86) Z)
( >= Y0 0)
( <= ( + Y0 23 ) 100)
( >= X1 0)
( <= ( + X1 63) Z)
( >= Y1 0)
( <= ( + Y1 81 ) 100)
( >= X2 0)
( <= ( + X2 35) Z)
( >= Y2 0)
( <= ( + Y2 92 ) 100)
( >= X3 0)
( <= ( + X3 53) Z)
( >= Y3 0)
( <= ( + Y3 64 ) 100)
( >= X4 0)
( <= ( + X4 66) Z)
( >= Y4 0)
( <= ( + Y4 63 ) 100)
( >= X5 0)
( <= ( + X5 97) Z)
( >= Y5 0)
( <= ( + Y5 68 ) 100)
) )
)(=> $phi $goal))))